p cnf 19 50
-3 4 -4 0
-16 19 16 0
18 -11 -8 0
5 -16 9 0
-12 11 -7 0
-9 2 12 0
-8 -5 -10 0
14 -3 -14 0
-13 19 -3 0
-19 -17 -19 0
-12 18 -9 0
10 -10 -10 0
-2 15 -3 0
-14 2 15 0
17 -19 -18 0
-12 -12 2 0
11 17 8 0
11 9 -19 0
1 16 -13 0
12 16 10 0
16 -12 -11 0
-19 3 8 0
-15 -17 -6 0
-3 -6 -11 0
-6 -16 -12 0
-18 6 -2 0
15 -7 -3 0
-1 -7 -18 0
11 -15 13 0
-2 1 10 0
-2 -13 4 0
3 8 -5 0
4 6 4 0
8 7 13 0
-2 17 3 0
-7 12 19 0
3 -14 -10 0
-9 18 8 0
-3 -14 19 0
13 11 -16 0
15 -10 -19 0
-7 -4 -5 0
-9 -17 -4 0
-3 -7 -11 0
19 13 -9 0
6 -9 19 0
8 10 -7 0
5 -15 1 0
17 -2 6 0
12 8 -11 0
